
Gurobi 6.0.2 (win64) logging started 06/11/15 22:10:29

Warning: unknown variable 'kDash_dN' in bounds section
Read LP format model from file C:\MT\repository\VRPTWMS\instances\mip\toCalculate\TestInstance2Freight_No_40.lp
Reading time = 0.00 seconds
(null): 73 rows, 58 columns, 237 nonzeros
Optimize a model with 73 rows, 58 columns and 237 nonzeros
Model has 48 quadratic constraints
WARNING: Only barrier available for SOCP models
Coefficient statistics:
  Matrix range    [1e+00, 1e+03]
  Objective range [1e+00, 1e+03]
  Bounds range    [1e+00, 1e+03]
  RHS range       [1e+00, 1e+03]
Presolve removed 19 rows and 13 columns
Presolve time: 0.00s
Presolved: 181 rows, 113 columns, 669 nonzeros
Variable types: 59 continuous, 54 integer (33 binary)
Found heuristic solution: objective 3006.0000000
Optimize a model with 181 rows, 113 columns and 669 nonzeros
Coefficient statistics:
  Matrix range    [1e+00, 1e+03]
  Objective range [1e+00, 1e+03]
  Bounds range    [1e+00, 1e+03]
  RHS range       [1e+00, 1e+03]
Presolve removed 18 rows and 11 columns
Presolved: 163 rows, 103 columns, 599 nonzeros


Root relaxation: objective 1.005500e+03, 43 iterations, 0.00 seconds

    Nodes    |    Current Node    |     Objective Bounds      |     Work
 Expl Unexpl |  Obj  Depth IntInf | Incumbent    BestBd   Gap | It/Node Time

     0     0 1005.50000    0    9 3006.00000 1005.50000  66.6%     -    0s
     0     0 1073.13333    0   36 3006.00000 1073.13333  64.3%     -    0s
     0     0 2005.57143    0   25 3006.00000 2005.57143  33.3%     -    0s
     0     0 2005.57143    0   28 3006.00000 2005.57143  33.3%     -    0s
     0     0 2005.58947    0   33 3006.00000 2005.58947  33.3%     -    0s
     0     0 2005.58947    0   32 3006.00000 2005.58947  33.3%     -    0s
     0     0 2005.58947    0   31 3006.00000 2005.58947  33.3%     -    0s
     0     0 2005.58947    0   15 3006.00000 2005.58947  33.3%     -    0s
     0     0 2006.00000    0   23 3006.00000 2006.00000  33.3%     -    0s
     0     0 2006.00000    0   24 3006.00000 2006.00000  33.3%     -    0s
     0     0 2006.00000    0   24 3006.00000 2006.00000  33.3%     -    0s
     0     0 2006.00000    0   23 3006.00000 2006.00000  33.3%     -    0s
     0     0 2006.00000    0   21 3006.00000 2006.00000  33.3%     -    0s
     0     0 2006.01031    0   39 3006.00000 2006.01031  33.3%     -    0s
     0     0 2006.01031    0   39 3006.00000 2006.01031  33.3%     -    0s
     0     2 2006.01031    0   39 3006.00000 2006.01031  33.3%     -    0s

Cutting planes:
  Gomory: 2
  Cover: 1
  Implied bound: 5
  MIR: 1
  GUB cover: 1
  Mod-K: 2

Explored 52 nodes (902 simplex iterations) in 0.08 seconds
Thread count was 2 (of 4 available processors)

Optimal solution found (tolerance 1.00e-04)
Best objective 3.006000000000e+03, best bound 3.006000000000e+03, gap 0.0%
k_c1	40.0
k_c2	40.0
k_c3	40.0
k_dN	-0.0
kDash_c1	-0.0
kDash_c2	-0.0
kDash_c3	-0.0
kDash_dN	-0.0
o_1	-0.0
o_2	-0.0
o_3	-0.0
p_1	-0.0
p_2	-0.0
p_3	-0.0
phi_c1	90.0
phi_c2	20.0
phi_c3	909.9999999999998
phi_d0	1000.0
phi_dN	-0.0
pi_c1	80.0
pi_c2	80.0
pi_c3	80.0
pi_dN	-0.0
tauD_c1	40.0
tauD_c2	50.0
tauD_c3	20.0
tauD_d0	-0.0
tauD_dN	100.0
tauS_c1	80.0
tauS_c2	-0.0
tauS_c3	80.0
tauS_d0	-0.0
tauS_dN	10.0
x_c1_dN	1.0
x_c2_dN	1.0
x_c3_dN	1.0
x_d0_c1	1.0
x_d0_c2	1.0
x_d0_c3	1.0
